(set-option :produce-models true); benchmark generated from python API
(set-info :status unknown)
(declare-fun l_0_0_5 () Real)
(declare-fun l_0_0_3 () Real)
(declare-fun l_0_0_4 () Real)
(declare-fun l_0_0_2 () Real)
(declare-fun l_0_0_9 () Real)
(declare-fun l_0_0_11 () Real)
(declare-fun l_0_0_8 () Real)
(declare-fun l_0_0_10 () Real)
(declare-fun _a_0_ () Real)
(declare-fun l_0_0_7 () Real)
(declare-fun l_0_0_1 () Real)
(declare-fun _a_1_ () Real)
(declare-fun l_0_0_6 () Real)
(declare-fun l_0_0_12 () Real)
(declare-fun _a_2_ () Real)
(declare-fun _a_3_ () Real)
(declare-fun _a_4_ () Real)
(declare-fun _a_5_ () Real)
(declare-fun l_0_1_7 () Real)
(declare-fun l_0_1_13 () Real)
(declare-fun l_0_1_1 () Real)
(declare-fun l_0_1_18 () Real)
(declare-fun l_0_1_17 () Real)
(declare-fun l_0_1_16 () Real)
(declare-fun l_0_1_12 () Real)
(declare-fun l_0_1_11 () Real)
(declare-fun l_0_1_10 () Real)
(declare-fun l_0_1_4 () Real)
(declare-fun l_0_1_6 () Real)
(declare-fun l_0_1_5 () Real)
(declare-fun l_0_1_8 () Real)
(declare-fun l_0_1_14 () Real)
(declare-fun l_0_1_2 () Real)
(declare-fun l_0_1_15 () Real)
(declare-fun l_0_1_9 () Real)
(declare-fun l_0_1_3 () Real)
(declare-fun l_0_2_7 () Real)
(declare-fun l_0_2_18 () Real)
(declare-fun l_0_2_17 () Real)
(declare-fun l_0_2_16 () Real)
(declare-fun l_0_2_12 () Real)
(declare-fun l_0_2_11 () Real)
(declare-fun l_0_2_10 () Real)
(declare-fun l_0_2_4 () Real)
(declare-fun l_0_2_1 () Real)
(declare-fun l_0_2_6 () Real)
(declare-fun l_0_2_5 () Real)
(declare-fun l_0_2_15 () Real)
(declare-fun l_0_2_14 () Real)
(declare-fun l_0_2_9 () Real)
(declare-fun l_0_2_8 () Real)
(declare-fun l_0_2_2 () Real)
(declare-fun l_0_2_3 () Real)
(declare-fun l_0_2_13 () Real)
(assert
 (let ((?x65 (- (- _a_0_ (* (* 2.0 l_0_0_10) l_0_0_8)) (* (* 2.0 l_0_0_11) l_0_0_9))))
 (let ((?x72 (- (- ?x65 (* (* (/ 1.0 2.0) l_0_0_2) l_0_0_4)) (* (* (/ 1.0 2.0) l_0_0_3) l_0_0_5))))
 (= ?x72 0.0))))
(assert
 (let ((?x125 (* l_0_0_7 l_0_0_7)))
 (= (- (- _a_1_ (* (* (/ 1.0 4.0) l_0_0_1) l_0_0_1)) ?x125) 0.0)))
(assert
 (let ((?x144 (* l_0_0_12 l_0_0_12)))
 (let ((?x142 (* l_0_0_11 l_0_0_11)))
 (let ((?x143 (- (- (+ _a_2_ (* l_0_0_1 l_0_0_1)) (* l_0_0_10 l_0_0_10)) ?x142)))
 (let ((?x151 (- (- (- ?x143 ?x144) (* (* (/ 1.0 4.0) l_0_0_4) l_0_0_4)) (* (* (/ 1.0 4.0) l_0_0_5) l_0_0_5))))
 (= (- ?x151 (* (* (/ 1.0 4.0) l_0_0_6) l_0_0_6)) 0.0))))))
(assert
 (let ((?x188 (- (- _a_3_ (* (* (/ 1.0 2.0) l_0_0_1) l_0_0_4)) (* (* 2.0 l_0_0_10) l_0_0_7))))
 (= ?x188 0.0)))
(assert
 (let ((?x207 (- (- _a_4_ (* (* (/ 1.0 2.0) l_0_0_1) l_0_0_2)) (* (* 2.0 l_0_0_7) l_0_0_8))))
 (= ?x207 0.0)))
(assert
 (let ((?x231 (* l_0_0_9 l_0_0_9)))
 (let ((?x229 (* l_0_0_8 l_0_0_8)))
 (let ((?x128 (* l_0_0_1 l_0_0_1)))
 (let ((?x222 (+ _a_5_ ?x128)))
 (let ((?x228 (- (- ?x222 (* (* (/ 1.0 4.0) l_0_0_2) l_0_0_2)) (* (* (/ 1.0 4.0) l_0_0_3) l_0_0_3))))
 (= (- (- ?x228 ?x229) ?x231) 0.0)))))))
(assert
 (= (* (* 2.0 l_0_0_1) l_0_0_2) 0.0))
(assert
 (= (* (* 2.0 l_0_0_1) l_0_0_4) 0.0))
(assert
 (let ((?x177 (* l_0_0_6 l_0_0_6)))
 (let ((?x171 (* l_0_0_5 l_0_0_5)))
 (let ((?x165 (* l_0_0_4 l_0_0_4)))
 (let ((?x240 (* l_0_0_3 l_0_0_3)))
 (let ((?x234 (* l_0_0_2 l_0_0_2)))
 (let ((?x259 (+ ?x234 ?x240)))
 (= (+ (+ (+ ?x259 ?x165) ?x171) ?x177) 0.0))))))))
(assert
 (let ((?x271 (+ (* (* 2.0 l_0_0_2) l_0_0_4) (* (* 2.0 l_0_0_3) l_0_0_5))))
 (= ?x271 0.0)))
(assert
 (let ((?x177 (* l_0_0_6 l_0_0_6)))
 (= (+ (+ (* l_0_0_4 l_0_0_4) (* l_0_0_5 l_0_0_5)) ?x177) 0.0)))
(assert
 (= (* (* 2.0 l_0_0_1) l_0_0_2) 0.0))
(assert
 (= (* (* 2.0 l_0_0_1) l_0_0_4) 0.0))
(assert
 (let ((?x240 (* l_0_0_3 l_0_0_3)))
 (let ((?x234 (* l_0_0_2 l_0_0_2)))
 (let ((?x259 (+ ?x234 ?x240)))
 (= ?x259 0.0)))))
(assert
 (let ((?x271 (+ (* (* 2.0 l_0_0_2) l_0_0_4) (* (* 2.0 l_0_0_3) l_0_0_5))))
 (= ?x271 0.0)))
(assert
 (>= l_0_0_1 0.0))
(assert
 (>= l_0_0_3 0.0))
(assert
 (>= l_0_0_6 0.0))
(assert
 (>= l_0_0_7 0.0))
(assert
 (>= l_0_0_9 0.0))
(assert
 (>= l_0_0_12 0.0))
(assert
 (let ((?x297 (+ (- (* (* (- _a_1_) l_0_1_1) l_0_1_1) (* l_0_1_13 l_0_1_13)) (* 3.0 (* l_0_1_7 l_0_1_7)))))
 (= (+ ?x297 1.0) 0.0)))
(assert
 (let ((?x294 (* l_0_1_7 l_0_1_7)))
 (let ((?x337 (* l_0_1_18 l_0_1_18)))
 (let ((?x335 (* l_0_1_17 l_0_1_17)))
 (let ((?x333 (* l_0_1_16 l_0_1_16)))
 (let ((?x330 (* l_0_1_12 l_0_1_12)))
 (let ((?x331 (* 3.0 ?x330)))
 (let ((?x327 (* l_0_1_11 l_0_1_11)))
 (let ((?x328 (* 3.0 ?x327)))
 (let ((?x324 (* l_0_1_10 l_0_1_10)))
 (let ((?x325 (* 3.0 ?x324)))
 (let ((?x314 (* l_0_1_6 l_0_1_6)))
 (let ((?x315 (+ (+ (* l_0_1_4 l_0_1_4) (* l_0_1_5 l_0_1_5)) ?x314)))
 (let ((?x289 (- _a_1_)))
 (let ((?x323 (- (- (* ?x289 ?x315) (* (* _a_2_ l_0_1_1) l_0_1_1)) (* (* (* 2.0 _a_3_) l_0_1_1) l_0_1_4))))
 (let ((?x339 (- (- (- (- (+ (+ (+ ?x323 ?x325) ?x328) ?x331) ?x333) ?x335) ?x337) ?x294)))
 (= (- ?x339 1.0) 0.0)))))))))))))))))
(assert
 (let ((?x385 (- (* (* (* (- 2.0) _a_1_) l_0_1_1) l_0_1_2) (* (* _a_4_ l_0_1_1) l_0_1_1))))
 (let ((?x392 (+ (- ?x385 (* (* 2.0 l_0_1_13) l_0_1_14)) (* (* 6.0 l_0_1_7) l_0_1_8))))
 (= (- ?x392 2.0) 0.0))))
(assert
 (let ((?x425 (+ (* (* 2.0 l_0_1_2) l_0_1_4) (* (* 2.0 l_0_1_3) l_0_1_5))))
 (let ((?x429 (- (- (* (* (- _a_0_) l_0_1_1) l_0_1_1) (* _a_1_ ?x425)) (* (* (* 2.0 _a_3_) l_0_1_1) l_0_1_2))))
 (let ((?x436 (+ (- ?x429 (* (* (* 2.0 _a_4_) l_0_1_1) l_0_1_4)) (* (* 6.0 l_0_1_10) l_0_1_8))))
 (let ((?x442 (- (+ ?x436 (* (* 6.0 l_0_1_11) l_0_1_9)) (* (* 2.0 l_0_1_14) l_0_1_16))))
 (= (- ?x442 (* (* 2.0 l_0_1_15) l_0_1_17)) 0.0))))))
(assert
 (let ((?x520 (* 2.0 l_0_1_10)))
 (let ((?x521 (* ?x520 l_0_1_7)))
 (let ((?x425 (+ (* (* 2.0 l_0_1_2) l_0_1_4) (* (* 2.0 l_0_1_3) l_0_1_5))))
 (let ((?x513 (- (* (* (* (- 2.0) _a_0_) l_0_1_1) l_0_1_2) (* _a_3_ (+ (* l_0_1_2 l_0_1_2) (* l_0_1_3 l_0_1_3))))))
 (let ((?x519 (- (- ?x513 (* _a_4_ ?x425)) (* (* (* 2.0 _a_5_) l_0_1_1) l_0_1_4))))
 (= (- ?x519 ?x521) 0.0)))))))
(assert
 (let ((?x581 (* (* 2.0 l_0_1_7) l_0_1_8)))
 (let ((?x314 (* l_0_1_6 l_0_1_6)))
 (let ((?x315 (+ (+ (* l_0_1_4 l_0_1_4) (* l_0_1_5 l_0_1_5)) ?x314)))
 (let ((?x425 (+ (* (* 2.0 l_0_1_2) l_0_1_4) (* (* 2.0 l_0_1_3) l_0_1_5))))
 (let ((?x575 (- (* (* (* (- 2.0) _a_0_) l_0_1_1) l_0_1_4) (* (* (* 2.0 _a_2_) l_0_1_1) l_0_1_2))))
 (= (- (- (- ?x575 (* _a_3_ ?x425)) (* _a_4_ ?x315)) ?x581) 0.0)))))))
(assert
 (let ((?x641 (* (* 2.0 l_0_1_11) l_0_1_9)))
 (let ((?x520 (* 2.0 l_0_1_10)))
 (let ((?x638 (* ?x520 l_0_1_8)))
 (let ((?x425 (+ (* (* 2.0 l_0_1_2) l_0_1_4) (* (* 2.0 l_0_1_3) l_0_1_5))))
 (let ((?x637 (- (* (- _a_0_) (+ (* l_0_1_2 l_0_1_2) (* l_0_1_3 l_0_1_3))) (* _a_5_ ?x425))))
 (= (- (- ?x637 ?x638) ?x641) 0.0)))))))
(assert
 (let ((?x688 (* l_0_1_9 l_0_1_9)))
 (let ((?x686 (* l_0_1_8 l_0_1_8)))
 (let ((?x330 (* l_0_1_12 l_0_1_12)))
 (let ((?x327 (* l_0_1_11 l_0_1_11)))
 (let ((?x324 (* l_0_1_10 l_0_1_10)))
 (let ((?x314 (* l_0_1_6 l_0_1_6)))
 (let ((?x315 (+ (+ (* l_0_1_4 l_0_1_4) (* l_0_1_5 l_0_1_5)) ?x314)))
 (let ((?x425 (+ (* (* 2.0 l_0_1_2) l_0_1_4) (* (* 2.0 l_0_1_3) l_0_1_5))))
 (let ((?x418 (- _a_0_)))
 (let ((?x680 (- (* ?x418 ?x425) (* _a_2_ (+ (* l_0_1_2 l_0_1_2) (* l_0_1_3 l_0_1_3))))))
 (let ((?x689 (- (- (- (- (- (- ?x680 (* _a_5_ ?x315)) ?x324) ?x327) ?x330) ?x686) ?x688)))
 (= ?x689 0.0)))))))))))))
(assert
 (let ((?x641 (* (* 2.0 l_0_1_11) l_0_1_9)))
 (let ((?x520 (* 2.0 l_0_1_10)))
 (let ((?x638 (* ?x520 l_0_1_8)))
 (let ((?x425 (+ (* (* 2.0 l_0_1_2) l_0_1_4) (* (* 2.0 l_0_1_3) l_0_1_5))))
 (let ((?x314 (* l_0_1_6 l_0_1_6)))
 (let ((?x315 (+ (+ (* l_0_1_4 l_0_1_4) (* l_0_1_5 l_0_1_5)) ?x314)))
 (let ((?x418 (- _a_0_)))
 (= (- (- (- (* ?x418 ?x315) (* _a_2_ ?x425)) ?x638) ?x641) 0.0)))))))))
(assert
 (let ((?x778 (- (* (* (* (- 2.0) _a_1_) l_0_1_1) l_0_1_4) (* (* _a_3_ l_0_1_1) l_0_1_1))))
 (let ((?x782 (- (+ ?x778 (* (* 6.0 l_0_1_10) l_0_1_7)) (* (* 2.0 l_0_1_13) l_0_1_16))))
 (= ?x782 0.0))))
(assert
 (let ((?x294 (* l_0_1_7 l_0_1_7)))
 (let ((?x808 (* l_0_1_15 l_0_1_15)))
 (let ((?x806 (* l_0_1_14 l_0_1_14)))
 (let ((?x802 (- (* (- _a_1_) (+ (* l_0_1_2 l_0_1_2) (* l_0_1_3 l_0_1_3))) (* (* (* 2.0 _a_4_) l_0_1_1) l_0_1_2))))
 (let ((?x810 (- (- (- (- ?x802 (* (* _a_5_ l_0_1_1) l_0_1_1)) ?x806) ?x808) ?x294)))
 (let ((?x814 (+ (+ ?x810 (* 3.0 (* l_0_1_8 l_0_1_8))) (* 3.0 (* l_0_1_9 l_0_1_9)))))
 (= ?x814 0.0))))))))
(assert
 (let ((?x520 (* 2.0 l_0_1_10)))
 (let ((?x521 (* ?x520 l_0_1_7)))
 (let ((?x314 (* l_0_1_6 l_0_1_6)))
 (let ((?x315 (+ (+ (* l_0_1_4 l_0_1_4) (* l_0_1_5 l_0_1_5)) ?x314)))
 (let ((?x849 (- (- (* (* (* (- 2.0) _a_2_) l_0_1_1) l_0_1_4) (* _a_3_ ?x315)) ?x521)))
 (= ?x849 0.0)))))))
(assert
 (let ((?x330 (* l_0_1_12 l_0_1_12)))
 (let ((?x327 (* l_0_1_11 l_0_1_11)))
 (let ((?x324 (* l_0_1_10 l_0_1_10)))
 (let ((?x314 (* l_0_1_6 l_0_1_6)))
 (let ((?x315 (+ (+ (* l_0_1_4 l_0_1_4) (* l_0_1_5 l_0_1_5)) ?x314)))
 (= (- (- (- (* (- _a_2_) ?x315) ?x324) ?x327) ?x330) 0.0)))))))
(assert
 (let ((?x581 (* (* 2.0 l_0_1_7) l_0_1_8)))
 (let ((?x898 (- (* (- _a_4_) (+ (* l_0_1_2 l_0_1_2) (* l_0_1_3 l_0_1_3))) (* (* (* 2.0 _a_5_) l_0_1_1) l_0_1_2))))
 (= (- ?x898 ?x581) 0.0))))
(assert
 (let ((?x688 (* l_0_1_9 l_0_1_9)))
 (let ((?x686 (* l_0_1_8 l_0_1_8)))
 (let ((?x920 (- (* (- _a_5_) (+ (* l_0_1_2 l_0_1_2) (* l_0_1_3 l_0_1_3))) ?x686)))
 (= (- ?x920 ?x688) 0.0)))))
(assert
 (>= l_0_1_1 0.0))
(assert
 (>= l_0_1_3 0.0))
(assert
 (>= l_0_1_6 0.0))
(assert
 (>= l_0_1_7 0.0))
(assert
 (>= l_0_1_9 0.0))
(assert
 (>= l_0_1_12 0.0))
(assert
 (>= l_0_1_13 0.0))
(assert
 (>= l_0_1_15 0.0))
(assert
 (>= l_0_1_18 0.0))
(assert
 (let ((?x983 (* l_0_2_7 l_0_2_7)))
 (let ((?x981 (* l_0_2_18 l_0_2_18)))
 (let ((?x979 (* l_0_2_17 l_0_2_17)))
 (let ((?x977 (* l_0_2_16 l_0_2_16)))
 (let ((?x966 (* (/ 229441.0 250000.0) _a_5_)))
 (let ((?x963 (* (/ 23.0 100.0) _a_4_)))
 (let ((?x957 (* (/ 81.0 100.0) _a_2_)))
 (let ((?x949 (* l_0_2_6 l_0_2_6)))
 (let ((?x950 (+ (+ (* l_0_2_4 l_0_2_4) (* l_0_2_5 l_0_2_5)) ?x949)))
 (let ((?x945 (* (/ 4311.0 5000.0) _a_0_)))
 (let ((?x958 (+ (- (- ?x945 (* _a_1_ ?x950)) (* (* _a_2_ l_0_2_1) l_0_2_1)) ?x957)))
 (let ((?x967 (+ (- (- ?x958 (* (* (* 2.0 _a_3_) l_0_2_1) l_0_2_4)) ?x963) ?x966)))
 (let ((?x973 (- (- ?x967 (* (* 3.0 l_0_2_10) l_0_2_10)) (* (* 3.0 l_0_2_11) l_0_2_11))))
 (let ((?x982 (- (- (- (- ?x973 (* (* 3.0 l_0_2_12) l_0_2_12)) ?x977) ?x979) ?x981)))
 (= (+ ?x982 ?x983) 0.0))))))))))))))))
(assert
 (let ((?x1068 (* (/ 10059.0 50000.0) _a_5_)))
 (let ((?x1065 (* (/ 1.0 20.0) _a_4_)))
 (let ((?x1056 (+ (* (* 2.0 l_0_2_2) l_0_2_4) (* (* 2.0 l_0_2_3) l_0_2_5))))
 (let ((?x1058 (- (- (* (* (- _a_0_) l_0_2_1) l_0_2_1) (* (/ 189.0 2000.0) _a_0_)) (* _a_1_ ?x1056))))
 (let ((?x1063 (- (- ?x1058 (* (* (* 2.0 _a_3_) l_0_2_1) l_0_2_2)) (* (* (* 2.0 _a_4_) l_0_2_1) l_0_2_4))))
 (let ((?x1075 (- (- (- (- ?x1063 ?x1065) ?x1068) (* (* 6.0 l_0_2_10) l_0_2_8)) (* (* 6.0 l_0_2_11) l_0_2_9))))
 (let ((?x1081 (- (- ?x1075 (* (* 2.0 l_0_2_14) l_0_2_16)) (* (* 2.0 l_0_2_15) l_0_2_17))))
 (= ?x1081 0.0)))))))))
(assert
 (let ((?x1174 (* 2.0 l_0_2_10)))
 (let ((?x1175 (* ?x1174 l_0_2_7)))
 (let ((?x1172 (* (/ 11017.0 25000.0) _a_5_)))
 (let ((?x1169 (* (/ 1.0 10.0) _a_4_)))
 (let ((?x949 (* l_0_2_6 l_0_2_6)))
 (let ((?x950 (+ (+ (* l_0_2_4 l_0_2_4) (* l_0_2_5 l_0_2_5)) ?x949)))
 (let ((?x1167 (- (- (* (- (/ 207.0 1000.0)) _a_0_) (* (* (* 2.0 _a_2_) l_0_2_1) l_0_2_4)) (* _a_3_ ?x950))))
 (= (+ (- (- ?x1167 ?x1169) ?x1172) ?x1175) 0.0)))))))))
(assert
 (let ((?x1231 (* (* 2.0 l_0_2_7) l_0_2_8)))
 (let ((?x1228 (* (/ 19.0 400.0) _a_5_)))
 (let ((?x949 (* l_0_2_6 l_0_2_6)))
 (let ((?x950 (+ (+ (* l_0_2_4 l_0_2_4) (* l_0_2_5 l_0_2_5)) ?x949)))
 (let ((?x1056 (+ (* (* 2.0 l_0_2_2) l_0_2_4) (* (* 2.0 l_0_2_3) l_0_2_5))))
 (let ((?x1222 (- (- (* (* (* (- 2.0) _a_0_) l_0_2_1) l_0_2_4) (* (/ 9.0 200.0) _a_0_)) (* (* (* 2.0 _a_2_) l_0_2_1) l_0_2_2))))
 (= (+ (- (- (- ?x1222 (* _a_3_ ?x1056)) (* _a_4_ ?x950)) ?x1228) ?x1231) 0.0))))))))
(assert
 (let ((?x1030 (* l_0_2_12 l_0_2_12)))
 (let ((?x1024 (* l_0_2_11 l_0_2_11)))
 (let ((?x1018 (* l_0_2_10 l_0_2_10)))
 (let ((?x1296 (* (/ 1387.0 10000.0) _a_5_)))
 (let ((?x949 (* l_0_2_6 l_0_2_6)))
 (let ((?x950 (+ (+ (* l_0_2_4 l_0_2_4) (* l_0_2_5 l_0_2_5)) ?x949)))
 (let ((?x1288 (* (- (/ 9.0 100.0)) _a_0_)))
 (= (+ (+ (+ (- (- ?x1288 (* _a_2_ ?x950)) ?x1296) ?x1018) ?x1024) ?x1030) 0.0)))))))))
(assert
 (let ((?x1332 (* l_0_2_13 l_0_2_13)))
 (let ((?x1336 (- (- (+ (* (* (- _a_1_) l_0_2_1) l_0_2_1) _a_1_) ?x1332) (* (* 3.0 l_0_2_7) l_0_2_7))))
 (= ?x1336 0.0))))
(assert
 (let ((?x1358 (* (/ 479.0 500.0) _a_4_)))
 (let ((?x1355 (* (/ 9.0 10.0) _a_3_)))
 (let ((?x1353 (- (* (* (* (- 2.0) _a_1_) l_0_2_1) l_0_2_4) (* (* _a_3_ l_0_2_1) l_0_2_1))))
 (let ((?x1364 (- (- (+ (+ ?x1353 ?x1355) ?x1358) (* (* 6.0 l_0_2_10) l_0_2_7)) (* (* 2.0 l_0_2_13) l_0_2_16))))
 (= ?x1364 0.0))))))
(assert
 (let ((?x1390 (* (/ 21.0 200.0) _a_4_)))
 (let ((?x1388 (- (* (* (* (- 2.0) _a_1_) l_0_2_1) l_0_2_2) (* (* _a_4_ l_0_2_1) l_0_2_1))))
 (let ((?x1396 (- (- (- ?x1388 ?x1390) (* (* 2.0 l_0_2_13) l_0_2_14)) (* (* 6.0 l_0_2_7) l_0_2_8))))
 (= ?x1396 0.0)))))
(assert
 (let ((?x983 (* l_0_2_7 l_0_2_7)))
 (let ((?x1438 (* l_0_2_15 l_0_2_15)))
 (let ((?x1436 (* l_0_2_14 l_0_2_14)))
 (let ((?x1434 (* (/ 441.0 40000.0) _a_5_)))
 (let ((?x1429 (- (* (- _a_1_) (+ (* l_0_2_2 l_0_2_2) (* l_0_2_3 l_0_2_3))) (* (* (* 2.0 _a_4_) l_0_2_1) l_0_2_2))))
 (let ((?x1439 (- (- (+ (- ?x1429 (* (* _a_5_ l_0_2_1) l_0_2_1)) ?x1434) ?x1436) ?x1438)))
 (let ((?x1446 (- (- (+ ?x1439 ?x983) (* (* 3.0 l_0_2_8) l_0_2_8)) (* (* 3.0 l_0_2_9) l_0_2_9))))
 (= ?x1446 0.0)))))))))
(assert
 (let ((?x1174 (* 2.0 l_0_2_10)))
 (let ((?x1175 (* ?x1174 l_0_2_7)))
 (let ((?x1494 (* (/ 21.0 2000.0) _a_5_)))
 (let ((?x1056 (+ (* (* 2.0 l_0_2_2) l_0_2_4) (* (* 2.0 l_0_2_3) l_0_2_5))))
 (let ((?x1487 (- (* (* (* (- 2.0) _a_0_) l_0_2_1) l_0_2_2) (* _a_3_ (+ (* l_0_2_2 l_0_2_2) (* l_0_2_3 l_0_2_3))))))
 (let ((?x1492 (- (- ?x1487 (* _a_4_ ?x1056)) (* (* (* 2.0 _a_5_) l_0_2_1) l_0_2_4))))
 (= (+ (+ ?x1492 ?x1494) ?x1175) 0.0))))))))
(assert
 (let ((?x1549 (* (* 2.0 l_0_2_11) l_0_2_9)))
 (let ((?x1174 (* 2.0 l_0_2_10)))
 (let ((?x1546 (* ?x1174 l_0_2_8)))
 (let ((?x1544 (* (/ 11.0 250.0) _a_5_)))
 (let ((?x1056 (+ (* (* 2.0 l_0_2_2) l_0_2_4) (* (* 2.0 l_0_2_3) l_0_2_5))))
 (let ((?x949 (* l_0_2_6 l_0_2_6)))
 (let ((?x950 (+ (+ (* l_0_2_4 l_0_2_4) (* l_0_2_5 l_0_2_5)) ?x949)))
 (let ((?x418 (- _a_0_)))
 (= (+ (+ (+ (- (* ?x418 ?x950) (* _a_2_ ?x1056)) ?x1544) ?x1546) ?x1549) 0.0))))))))))
(assert
 (= (* (/ 23.0 500.0) _a_5_) 0.0))
(assert
 (let ((?x1478 (* l_0_2_9 l_0_2_9)))
 (let ((?x1472 (* l_0_2_8 l_0_2_8)))
 (let ((?x1030 (* l_0_2_12 l_0_2_12)))
 (let ((?x1024 (* l_0_2_11 l_0_2_11)))
 (let ((?x1018 (* l_0_2_10 l_0_2_10)))
 (let ((?x1590 (* (/ 1.0 400.0) _a_5_)))
 (let ((?x949 (* l_0_2_6 l_0_2_6)))
 (let ((?x950 (+ (+ (* l_0_2_4 l_0_2_4) (* l_0_2_5 l_0_2_5)) ?x949)))
 (let ((?x1056 (+ (* (* 2.0 l_0_2_2) l_0_2_4) (* (* 2.0 l_0_2_3) l_0_2_5))))
 (let ((?x418 (- _a_0_)))
 (let ((?x1586 (- (* ?x418 ?x1056) (* _a_2_ (+ (* l_0_2_2 l_0_2_2) (* l_0_2_3 l_0_2_3))))))
 (let ((?x1595 (+ (+ (+ (+ (+ (- ?x1586 (* _a_5_ ?x950)) ?x1590) ?x1018) ?x1024) ?x1030) ?x1472)))
 (= (+ ?x1595 ?x1478) 0.0))))))))))))))
(assert
 (= (* (/ 1.0 100.0) _a_5_) 0.0))
(assert
 (= (* (/ 1.0 100.0) _a_5_) 0.0))
(assert
 (let ((?x1549 (* (* 2.0 l_0_2_11) l_0_2_9)))
 (let ((?x1174 (* 2.0 l_0_2_10)))
 (let ((?x1546 (* ?x1174 l_0_2_8)))
 (let ((?x1056 (+ (* (* 2.0 l_0_2_2) l_0_2_4) (* (* 2.0 l_0_2_3) l_0_2_5))))
 (let ((?x1637 (- (* (- _a_0_) (+ (* l_0_2_2 l_0_2_2) (* l_0_2_3 l_0_2_3))) (* _a_5_ ?x1056))))
 (= (+ (+ ?x1637 ?x1546) ?x1549) 0.0)))))))
(assert
 (let ((?x1231 (* (* 2.0 l_0_2_7) l_0_2_8)))
 (let ((?x1667 (- (* (- _a_4_) (+ (* l_0_2_2 l_0_2_2) (* l_0_2_3 l_0_2_3))) (* (* (* 2.0 _a_5_) l_0_2_1) l_0_2_2))))
 (= (+ ?x1667 ?x1231) 0.0))))
(assert
 (let ((?x1478 (* l_0_2_9 l_0_2_9)))
 (let ((?x1472 (* l_0_2_8 l_0_2_8)))
 (let ((?x1686 (+ (* (- _a_5_) (+ (* l_0_2_2 l_0_2_2) (* l_0_2_3 l_0_2_3))) ?x1472)))
 (= (+ ?x1686 ?x1478) 0.0)))))
(assert
 (>= l_0_2_1 0.0))
(assert
 (>= l_0_2_3 0.0))
(assert
 (>= l_0_2_6 0.0))
(assert
 (>= l_0_2_7 0.0))
(assert
 (>= l_0_2_9 0.0))
(assert
 (>= l_0_2_12 0.0))
(assert
 (>= l_0_2_13 0.0))
(assert
 (>= l_0_2_15 0.0))
(assert
 (>= l_0_2_18 0.0))
(check-sat)
(get-model)